!qe
&control
   prefix = 'Si'
   calculation = 'bands'
   restart_mode = 'from_scratch'
   wf_collect = .true.
   tstress = .true.
   tprnfor = .true.
   outdir = './'
   wfcdir = './'
   pseudo_dir = './'
   verbosity = 'high'
/
&system
   ibrav = 0
   celldm(1) = 10.164541897
   nat = 2
   ntyp = 1
   nbnd = 34
   ecutwfc = 80
/
&electrons
   electron_maxstep = 500
   conv_thr = 1.0d-10
   mixing_mode = 'plain'
   mixing_beta = 0.7
   mixing_ndim = 8
   diagonalization = 'cg'
   diago_david_ndim = 4
   diago_full_acc = .true.
/
&ions
/
&cell
/
ATOMIC_SPECIES
   Si  28.086 si.cpi.UPF

CELL_PARAMETERS (alat)
  -0.500000000  -0.000000000   0.500000000
   0.000000000   0.500000000   0.500000000
  -0.500000000   0.500000000  -0.000000000

ATOMIC_POSITIONS (crystal)
Si      -0.125000000  -0.125000000  -0.125000000
Si       0.125000000   0.125000000   0.125000000

K_POINTS crystal
  408
  0.001000000  0.250000000  0.187500000   6.0
  0.001000000  0.375000000  0.312500000   6.0
  0.001000000  0.500000000  0.312500000   6.0
  0.001000000  0.500000000  0.437500000   6.0
  0.001000000  0.625000000  0.437500000   6.0
  0.001000000  0.625000000  0.562500000   6.0
  0.001000000  0.750000000  0.437500000   6.0
  0.001000000  0.750000000  0.562500000   6.0
  0.001000000  0.750000000  0.687500000   6.0
  0.001000000  0.875000000  0.562500000   6.0
  0.001000000  0.875000000  0.687500000   6.0
  0.001000000  0.875000000  0.812500000   6.0
  0.063500000  0.000000000  0.000000000   1.0
  0.063500000  0.000000000  0.125000000   3.0
  0.063500000  0.000000000  0.250000000   3.0
  0.063500000  0.000000000  0.375000000   3.0
  0.063500000  0.000000000  0.500000000   3.0
  0.063500000  0.000000000  0.625000000   3.0
  0.063500000  0.000000000  0.750000000   3.0
  0.063500000  0.000000000  0.875000000   3.0
  0.063500000  0.062500000  0.062500000   3.0
  0.063500000  0.062500000  0.187500000   6.0
  0.063500000  0.062500000  0.312500000   6.0
  0.063500000  0.062500000  0.437500000   6.0
  0.063500000  0.062500000  0.562500000   6.0
  0.063500000  0.062500000  0.687500000   6.0
  0.063500000  0.062500000  0.812500000   6.0
  0.063500000  0.062500000  0.937500000   6.0
  0.063500000  0.187500000  0.187500000   3.0
  0.063500000  0.187500000  0.312500000   6.0
  0.063500000  0.187500000  0.437500000   6.0
  0.063500000  0.187500000  0.562500000   6.0
  0.063500000  0.187500000  0.687500000   6.0
  0.063500000  0.187500000  0.812500000   6.0
  0.063500000  0.187500000  0.937500000   6.0
  0.063500000  0.250000000  0.250000000   3.0
  0.063500000  0.312500000  0.312500000   3.0
  0.063500000  0.312500000  0.437500000   6.0
  0.063500000  0.312500000  0.562500000   6.0
  0.063500000  0.312500000  0.687500000   6.0
  0.063500000  0.312500000  0.812500000   6.0
  0.063500000  0.312500000  0.937500000   6.0
  0.063500000  0.375000000  0.250000000   6.0
  0.063500000  0.375000000  0.375000000   3.0
  0.063500000  0.437500000  0.437500000   3.0
  0.063500000  0.437500000  0.562500000   6.0
  0.063500000  0.437500000  0.687500000   6.0
  0.063500000  0.437500000  0.812500000   6.0
  0.063500000  0.437500000  0.937500000   6.0
  0.063500000  0.500000000  0.250000000   6.0
  0.063500000  0.500000000  0.375000000   6.0
  0.063500000  0.500000000  0.500000000   3.0
  0.063500000  0.562500000  0.562500000   3.0
  0.063500000  0.562500000  0.687500000   6.0
  0.063500000  0.562500000  0.812500000   6.0
  0.063500000  0.625000000  0.125000000   6.0
  0.063500000  0.625000000  0.250000000   6.0
  0.063500000  0.625000000  0.375000000   6.0
  0.063500000  0.625000000  0.500000000   6.0
  0.063500000  0.625000000  0.625000000   3.0
  0.063500000  0.687500000  0.687500000   3.0
  0.063500000  0.687500000  0.812500000   6.0
  0.063500000  0.750000000  0.125000000   6.0
  0.063500000  0.750000000  0.250000000   6.0
  0.063500000  0.750000000  0.375000000   6.0
  0.063500000  0.750000000  0.500000000   6.0
  0.063500000  0.750000000  0.625000000   6.0
  0.063500000  0.750000000  0.750000000   3.0
  0.063500000  0.812500000  0.812500000   3.0
  0.063500000  0.875000000  0.125000000   6.0
  0.063500000  0.875000000  0.250000000   6.0
  0.063500000  0.875000000  0.375000000   6.0
  0.063500000  0.875000000  0.500000000   6.0
  0.063500000  0.875000000  0.625000000   6.0
  0.063500000  0.875000000  0.750000000   6.0
  0.063500000  0.875000000  0.875000000   3.0
  0.126000000  0.000000000  0.062500000   3.0
  0.126000000  0.000000000  0.562500000   3.0
  0.126000000  0.000000000  0.687500000   3.0
  0.126000000  0.000000000  0.812500000   3.0
  0.126000000  0.000000000  0.937500000   3.0
  0.126000000  0.375000000  0.312500000   6.0
  0.126000000  0.500000000  0.437500000   6.0
  0.126000000  0.625000000  0.062500000   6.0
  0.126000000  0.625000000  0.437500000   6.0
  0.126000000  0.625000000  0.562500000   6.0
  0.126000000  0.750000000  0.062500000   6.0
  0.126000000  0.750000000  0.562500000   6.0
  0.126000000  0.750000000  0.687500000   6.0
  0.126000000  0.875000000  0.062500000   6.0
  0.126000000  0.875000000  0.562500000   6.0
  0.126000000  0.875000000  0.687500000   6.0
  0.126000000  0.875000000  0.812500000   6.0
  0.188500000  0.000000000  0.000000000   1.0
  0.188500000  0.000000000  0.375000000   3.0
  0.188500000  0.000000000  0.500000000   3.0
  0.188500000  0.000000000  0.625000000   3.0
  0.188500000  0.000000000  0.750000000   3.0
  0.188500000  0.000000000  0.875000000   3.0
  0.188500000  0.062500000  0.312500000   6.0
  0.188500000  0.062500000  0.437500000   6.0
  0.188500000  0.062500000  0.562500000   6.0
  0.188500000  0.062500000  0.687500000   6.0
  0.188500000  0.062500000  0.812500000   6.0
  0.188500000  0.062500000  0.937500000   6.0
  0.188500000  0.187500000  0.187500000   3.0
  0.188500000  0.187500000  0.312500000   6.0
  0.188500000  0.187500000  0.437500000   6.0
  0.188500000  0.187500000  0.562500000   6.0
  0.188500000  0.187500000  0.687500000   6.0
  0.188500000  0.187500000  0.812500000   6.0
  0.188500000  0.250000000  0.000000000   3.0
  0.188500000  0.312500000  0.312500000   3.0
  0.188500000  0.312500000  0.437500000   6.0
  0.188500000  0.312500000  0.562500000   6.0
  0.188500000  0.312500000  0.687500000   6.0
  0.188500000  0.312500000  0.812500000   6.0
  0.188500000  0.437500000  0.437500000   3.0
  0.188500000  0.437500000  0.562500000   6.0
  0.188500000  0.437500000  0.687500000   6.0
  0.188500000  0.437500000  0.812500000   6.0
  0.188500000  0.500000000  0.500000000   3.0
  0.188500000  0.562500000  0.562500000   3.0
  0.188500000  0.562500000  0.687500000   6.0
  0.188500000  0.625000000  0.500000000   6.0
  0.188500000  0.625000000  0.625000000   3.0
  0.188500000  0.687500000  0.687500000   3.0
  0.188500000  0.750000000  0.375000000   6.0
  0.188500000  0.750000000  0.500000000   6.0
  0.188500000  0.750000000  0.625000000   6.0
  0.188500000  0.750000000  0.750000000   3.0
  0.188500000  0.875000000  0.375000000   6.0
  0.188500000  0.875000000  0.500000000   6.0
  0.188500000  0.875000000  0.625000000   6.0
  0.188500000  0.875000000  0.750000000   6.0
  0.188500000  0.875000000  0.875000000   3.0
  0.188500000  0.937500000  0.187500000   6.0
  0.251000000  0.000000000  0.062500000   3.0
  0.251000000  0.000000000  0.687500000   3.0
  0.251000000  0.000000000  0.812500000   3.0
  0.251000000  0.000000000  0.937500000   3.0
  0.251000000  0.375000000  0.062500000   6.0
  0.251000000  0.500000000  0.062500000   6.0
  0.251000000  0.500000000  0.437500000   6.0
  0.251000000  0.625000000  0.062500000   6.0
  0.251000000  0.625000000  0.562500000   6.0
  0.251000000  0.750000000  0.062500000   6.0
  0.251000000  0.750000000  0.562500000   6.0
  0.251000000  0.750000000  0.687500000   6.0
  0.251000000  0.875000000  0.062500000   6.0
  0.251000000  0.875000000  0.562500000   6.0
  0.251000000  0.875000000  0.687500000   6.0
  0.251000000  0.875000000  0.812500000   6.0
  0.313500000  0.000000000  0.000000000   1.0
  0.313500000  0.000000000  0.625000000   3.0
  0.313500000  0.000000000  0.750000000   3.0
  0.313500000  0.000000000  0.875000000   3.0
  0.313500000  0.062500000  0.437500000   6.0
  0.313500000  0.062500000  0.562500000   6.0
  0.313500000  0.062500000  0.687500000   6.0
  0.313500000  0.062500000  0.812500000   6.0
  0.313500000  0.062500000  0.937500000   6.0
  0.313500000  0.187500000  0.437500000   6.0
  0.313500000  0.187500000  0.562500000   6.0
  0.313500000  0.187500000  0.687500000   6.0
  0.313500000  0.187500000  0.812500000   6.0
  0.313500000  0.312500000  0.312500000   3.0
  0.313500000  0.312500000  0.437500000   6.0
  0.313500000  0.312500000  0.562500000   6.0
  0.313500000  0.312500000  0.687500000   6.0
  0.313500000  0.375000000  0.000000000   3.0
  0.313500000  0.375000000  0.125000000   6.0
  0.313500000  0.437500000  0.437500000   3.0
  0.313500000  0.437500000  0.562500000   6.0
  0.313500000  0.437500000  0.687500000   6.0
  0.313500000  0.500000000  0.000000000   3.0
  0.313500000  0.562500000  0.562500000   3.0
  0.313500000  0.750000000  0.750000000   3.0
  0.313500000  0.812500000  0.312500000   6.0
  0.313500000  0.875000000  0.625000000   6.0
  0.313500000  0.875000000  0.750000000   6.0
  0.313500000  0.875000000  0.875000000   3.0
  0.313500000  0.937500000  0.187500000   6.0
  0.313500000  0.937500000  0.312500000   6.0
  0.376000000  0.000000000  0.062500000   3.0
  0.376000000  0.000000000  0.187500000   3.0
  0.376000000  0.000000000  0.687500000   3.0
  0.376000000  0.000000000  0.812500000   3.0
  0.376000000  0.000000000  0.937500000   3.0
  0.376000000  0.500000000  0.062500000   6.0
  0.376000000  0.625000000  0.062500000   6.0
  0.376000000  0.625000000  0.562500000   6.0
  0.376000000  0.750000000  0.062500000   6.0
  0.376000000  0.750000000  0.187500000   6.0
  0.376000000  0.750000000  0.562500000   6.0
  0.376000000  0.750000000  0.687500000   6.0
  0.376000000  0.875000000  0.062500000   6.0
  0.376000000  0.875000000  0.187500000   6.0
  0.376000000  0.875000000  0.687500000   6.0
  0.376000000  0.875000000  0.812500000   6.0
  0.438500000  0.000000000  0.000000000   1.0
  0.438500000  0.000000000  0.875000000   3.0
  0.438500000  0.062500000  0.562500000   6.0
  0.438500000  0.062500000  0.687500000   6.0
  0.438500000  0.062500000  0.812500000   6.0
  0.438500000  0.062500000  0.937500000   6.0
  0.438500000  0.187500000  0.562500000   6.0
  0.438500000  0.187500000  0.687500000   6.0
  0.438500000  0.187500000  0.812500000   6.0
  0.438500000  0.312500000  0.562500000   6.0
  0.438500000  0.312500000  0.687500000   6.0
  0.438500000  0.437500000  0.437500000   3.0
  0.438500000  0.437500000  0.562500000   6.0
  0.438500000  0.500000000  0.000000000   3.0
  0.438500000  0.500000000  0.125000000   6.0
  0.438500000  0.500000000  0.250000000   6.0
  0.438500000  0.625000000  0.000000000   3.0
  0.438500000  0.625000000  0.125000000   6.0
  0.438500000  0.687500000  0.437500000   6.0
  0.438500000  0.750000000  0.000000000   3.0
  0.438500000  0.812500000  0.312500000   6.0
  0.438500000  0.812500000  0.437500000   6.0
  0.438500000  0.937500000  0.187500000   6.0
  0.438500000  0.937500000  0.312500000   6.0
  0.438500000  0.937500000  0.437500000   6.0
  0.501000000  0.000000000  0.062500000   3.0
  0.501000000  0.000000000  0.187500000   3.0
  0.501000000  0.000000000  0.812500000   3.0
  0.501000000  0.000000000  0.937500000   3.0
  0.501000000  0.625000000  0.062500000   6.0
  0.501000000  0.625000000  0.187500000   6.0
  0.501000000  0.625000000  0.562500000   6.0
  0.501000000  0.750000000  0.062500000   6.0
  0.501000000  0.750000000  0.187500000   6.0
  0.501000000  0.750000000  0.687500000   6.0
  0.501000000  0.875000000  0.062500000   6.0
  0.501000000  0.875000000  0.187500000   6.0
  0.501000000  0.875000000  0.687500000   6.0
  0.501000000  0.875000000  0.812500000   6.0
  0.563500000  0.000000000  0.000000000   1.0
  0.563500000  0.000000000  0.125000000   3.0
  0.563500000  0.062500000  0.687500000   6.0
  0.563500000  0.062500000  0.812500000   6.0
  0.563500000  0.187500000  0.687500000   6.0
  0.563500000  0.562500000  0.437500000   6.0
  0.563500000  0.562500000  0.562500000   3.0
  0.563500000  0.625000000  0.000000000   3.0
  0.563500000  0.625000000  0.125000000   6.0
  0.563500000  0.625000000  0.250000000   6.0
  0.563500000  0.625000000  0.375000000   6.0
  0.563500000  0.625000000  0.500000000   6.0
  0.563500000  0.687500000  0.312500000   6.0
  0.563500000  0.687500000  0.437500000   6.0
  0.563500000  0.687500000  0.562500000   6.0
  0.563500000  0.750000000  0.000000000   3.0
  0.563500000  0.750000000  0.125000000   6.0
  0.563500000  0.750000000  0.250000000   6.0
  0.563500000  0.750000000  0.375000000   6.0
  0.563500000  0.812500000  0.187500000   6.0
  0.563500000  0.812500000  0.312500000   6.0
  0.563500000  0.812500000  0.437500000   6.0
  0.563500000  0.812500000  0.562500000   6.0
  0.563500000  0.875000000  0.000000000   3.0
  0.563500000  0.875000000  0.125000000   6.0
  0.563500000  0.875000000  0.250000000   6.0
  0.563500000  0.937500000  0.062500000   6.0
  0.563500000  0.937500000  0.187500000   6.0
  0.563500000  0.937500000  0.312500000   6.0
  0.563500000  0.937500000  0.437500000   6.0
  0.563500000  0.937500000  0.562500000   6.0
  0.626000000  0.000000000  0.062500000   3.0
  0.626000000  0.000000000  0.187500000   3.0
  0.626000000  0.000000000  0.312500000   3.0
  0.626000000  0.000000000  0.812500000   3.0
  0.626000000  0.000000000  0.937500000   3.0
  0.626000000  0.750000000  0.062500000   6.0
  0.626000000  0.750000000  0.187500000   6.0
  0.626000000  0.750000000  0.687500000   6.0
  0.626000000  0.875000000  0.062500000   6.0
  0.626000000  0.875000000  0.187500000   6.0
  0.626000000  0.875000000  0.312500000   6.0
  0.626000000  0.875000000  0.812500000   6.0
  0.688500000  0.000000000  0.000000000   1.0
  0.688500000  0.000000000  0.125000000   3.0
  0.688500000  0.000000000  0.250000000   3.0
  0.688500000  0.000000000  0.375000000   3.0
  0.688500000  0.062500000  0.812500000   6.0
  0.688500000  0.437500000  0.437500000   3.0
  0.688500000  0.562500000  0.312500000   6.0
  0.688500000  0.562500000  0.437500000   6.0
  0.688500000  0.562500000  0.562500000   3.0
  0.688500000  0.687500000  0.312500000   6.0
  0.688500000  0.687500000  0.437500000   6.0
  0.688500000  0.687500000  0.562500000   6.0
  0.688500000  0.687500000  0.687500000   3.0
  0.688500000  0.750000000  0.000000000   3.0
  0.688500000  0.750000000  0.125000000   6.0
  0.688500000  0.750000000  0.250000000   6.0
  0.688500000  0.750000000  0.375000000   6.0
  0.688500000  0.750000000  0.500000000   6.0
  0.688500000  0.750000000  0.625000000   6.0
  0.688500000  0.812500000  0.187500000   6.0
  0.688500000  0.812500000  0.312500000   6.0
  0.688500000  0.812500000  0.437500000   6.0
  0.688500000  0.812500000  0.562500000   6.0
  0.688500000  0.812500000  0.687500000   6.0
  0.688500000  0.875000000  0.000000000   3.0
  0.688500000  0.875000000  0.125000000   6.0
  0.688500000  0.875000000  0.250000000   6.0
  0.688500000  0.875000000  0.375000000   6.0
  0.688500000  0.875000000  0.500000000   6.0
  0.688500000  0.937500000  0.062500000   6.0
  0.688500000  0.937500000  0.187500000   6.0
  0.688500000  0.937500000  0.312500000   6.0
  0.688500000  0.937500000  0.437500000   6.0
  0.688500000  0.937500000  0.562500000   6.0
  0.688500000  0.937500000  0.687500000   6.0
  0.751000000  0.000000000  0.062500000   3.0
  0.751000000  0.000000000  0.187500000   3.0
  0.751000000  0.000000000  0.312500000   3.0
  0.751000000  0.000000000  0.937500000   3.0
  0.751000000  0.875000000  0.062500000   6.0
  0.751000000  0.875000000  0.187500000   6.0
  0.751000000  0.875000000  0.312500000   6.0
  0.751000000  0.875000000  0.812500000   6.0
  0.813500000  0.000000000  0.000000000   1.0
  0.813500000  0.000000000  0.125000000   3.0
  0.813500000  0.000000000  0.250000000   3.0
  0.813500000  0.000000000  0.375000000   3.0
  0.813500000  0.000000000  0.500000000   3.0
  0.813500000  0.000000000  0.625000000   3.0
  0.813500000  0.312500000  0.312500000   3.0
  0.813500000  0.437500000  0.312500000   6.0
  0.813500000  0.437500000  0.437500000   3.0
  0.813500000  0.562500000  0.187500000   6.0
  0.813500000  0.562500000  0.312500000   6.0
  0.813500000  0.562500000  0.437500000   6.0
  0.813500000  0.562500000  0.562500000   3.0
  0.813500000  0.687500000  0.187500000   6.0
  0.813500000  0.687500000  0.312500000   6.0
  0.813500000  0.687500000  0.437500000   6.0
  0.813500000  0.687500000  0.562500000   6.0
  0.813500000  0.687500000  0.687500000   3.0
  0.813500000  0.812500000  0.187500000   6.0
  0.813500000  0.812500000  0.312500000   6.0
  0.813500000  0.812500000  0.437500000   6.0
  0.813500000  0.812500000  0.562500000   6.0
  0.813500000  0.812500000  0.687500000   6.0
  0.813500000  0.812500000  0.812500000   3.0
  0.813500000  0.875000000  0.000000000   3.0
  0.813500000  0.875000000  0.125000000   6.0
  0.813500000  0.875000000  0.250000000   6.0
  0.813500000  0.875000000  0.375000000   6.0
  0.813500000  0.875000000  0.500000000   6.0
  0.813500000  0.875000000  0.625000000   6.0
  0.813500000  0.875000000  0.750000000   6.0
  0.813500000  0.937500000  0.062500000   6.0
  0.813500000  0.937500000  0.187500000   6.0
  0.813500000  0.937500000  0.312500000   6.0
  0.813500000  0.937500000  0.437500000   6.0
  0.813500000  0.937500000  0.562500000   6.0
  0.813500000  0.937500000  0.687500000   6.0
  0.813500000  0.937500000  0.812500000   6.0
  0.876000000  0.000000000  0.062500000   3.0
  0.876000000  0.000000000  0.187500000   3.0
  0.876000000  0.000000000  0.312500000   3.0
  0.876000000  0.000000000  0.437500000   3.0
  0.876000000  0.000000000  0.937500000   3.0
  0.938500000  0.000000000  0.000000000   1.0
  0.938500000  0.000000000  0.125000000   3.0
  0.938500000  0.000000000  0.250000000   3.0
  0.938500000  0.000000000  0.375000000   3.0
  0.938500000  0.000000000  0.500000000   3.0
  0.938500000  0.000000000  0.625000000   3.0
  0.938500000  0.000000000  0.750000000   3.0
  0.938500000  0.000000000  0.875000000   3.0
  0.938500000  0.187500000  0.187500000   3.0
  0.938500000  0.312500000  0.187500000   6.0
  0.938500000  0.312500000  0.312500000   3.0
  0.938500000  0.437500000  0.187500000   6.0
  0.938500000  0.437500000  0.312500000   6.0
  0.938500000  0.437500000  0.437500000   3.0
  0.938500000  0.562500000  0.062500000   6.0
  0.938500000  0.562500000  0.187500000   6.0
  0.938500000  0.562500000  0.312500000   6.0
  0.938500000  0.562500000  0.437500000   6.0
  0.938500000  0.562500000  0.562500000   3.0
  0.938500000  0.687500000  0.062500000   6.0
  0.938500000  0.687500000  0.187500000   6.0
  0.938500000  0.687500000  0.312500000   6.0
  0.938500000  0.687500000  0.437500000   6.0
  0.938500000  0.687500000  0.562500000   6.0
  0.938500000  0.687500000  0.687500000   3.0
  0.938500000  0.812500000  0.062500000   6.0
  0.938500000  0.812500000  0.187500000   6.0
  0.938500000  0.812500000  0.312500000   6.0
  0.938500000  0.812500000  0.437500000   6.0
  0.938500000  0.812500000  0.562500000   6.0
  0.938500000  0.812500000  0.687500000   6.0
  0.938500000  0.812500000  0.812500000   3.0
  0.938500000  0.937500000  0.062500000   6.0
  0.938500000  0.937500000  0.187500000   6.0
  0.938500000  0.937500000  0.312500000   6.0
  0.938500000  0.937500000  0.437500000   6.0
  0.938500000  0.937500000  0.562500000   6.0
  0.938500000  0.937500000  0.687500000   6.0
  0.938500000  0.937500000  0.812500000   6.0
  0.938500000  0.937500000  0.937500000   3.0
