&inputpp
   outdir = './'
   prefix = 'Si'
   seedname = 'Si'
   spin_component = 'none'
   !write_mmn = .false.
   write_mmn = .true.
   write_amn = .true.
   write_unk = .false.
/
