num_bands = 34
num_wann = 26 
dis_win_max  =  50.0d0
dis_froz_max =  30.0d0
dis_win_min  =  -8.0d0
dis_froz_min =  -8.0d0

num_iter     =  10000
num_print_cycles = 500
!restart = default

dis_num_iter = 20000
dis_mix_ratio = 0.8

Begin Atoms_Frac
Si -0.125 -0.125 -0.125
Si  0.125  0.125  0.125
End Atoms_Frac

Begin Projections
Si:d
f=0.000,0.000,0.000:s
f=0.500,0.000,0.000:s
f=0.000,0.500,0.000:s
f=0.000,0.000,0.500:s
f=0.000,0.000,0.000:pz:z=-.25,-.25,-.25:x=0,1,-1
f=0.500,0.000,0.000:pz:z=.75,-.25,-.25:x=0,1,1
f=0.000,0.500,0.000:pz:z=-.25,.75,-.25:x=1,0,1
f=0.000,0.000,0.500:pz:z=-.25,-.25,.75:x=1,1,0
f=0.250,0.250,0.250:s
f=-0.250,0.250,0.250:s
f=0.250,-0.250,0.250:s
f=0.250,0.250,-0.250:s
f=-0.250,-0.250,-0.250:s
f=0.250,-0.250,-0.250:s
f=-0.250,0.250,-0.250:s
f=-0.250,-0.250,0.250:s
End Projections

bands_plot = .true.
begin kpoint_path
G 0.000 0.000 0.000 X 0.500 0.000 0.500
X 0.500 0.000 0.500 W 0.500 0.250 0.750
W 0.500 0.250 0.750 K 0.375 0.375 0.750
K 0.375 0.375 0.750 G 0.000 0.000 0.000
G 0.000 0.000 0.000 L 0.500 0.500 0.500
end kpoint_path

bands_num_points = 100
bands_plot_format gnuplot

Begin Unit_Cell_Cart
Bohr
-5.082270948500000e0 0.000000000000000e0 5.082270948500000e0
 0.000000000000000e0 5.082270948500000e0 5.082270948500000e0
-5.082270948500000e0 5.082270948500000e0 0.000000000000000e0
End Unit_Cell_Cart

mp_grid = 8 8 8 

begin kpoints
  0.00000000  0.00000000  0.00000000
  0.00000000  0.00000000  0.12500000
  0.00000000  0.00000000  0.25000000
  0.00000000  0.00000000  0.37500000
  0.00000000  0.00000000  0.50000000
  0.00000000  0.00000000  0.62500000
  0.00000000  0.00000000  0.75000000
  0.00000000  0.00000000  0.87500000
  0.00000000  0.12500000  0.00000000
  0.00000000  0.12500000  0.12500000
  0.00000000  0.12500000  0.25000000
  0.00000000  0.12500000  0.37500000
  0.00000000  0.12500000  0.50000000
  0.00000000  0.12500000  0.62500000
  0.00000000  0.12500000  0.75000000
  0.00000000  0.12500000  0.87500000
  0.00000000  0.25000000  0.00000000
  0.00000000  0.25000000  0.12500000
  0.00000000  0.25000000  0.25000000
  0.00000000  0.25000000  0.37500000
  0.00000000  0.25000000  0.50000000
  0.00000000  0.25000000  0.62500000
  0.00000000  0.25000000  0.75000000
  0.00000000  0.25000000  0.87500000
  0.00000000  0.37500000  0.00000000
  0.00000000  0.37500000  0.12500000
  0.00000000  0.37500000  0.25000000
  0.00000000  0.37500000  0.37500000
  0.00000000  0.37500000  0.50000000
  0.00000000  0.37500000  0.62500000
  0.00000000  0.37500000  0.75000000
  0.00000000  0.37500000  0.87500000
  0.00000000  0.50000000  0.00000000
  0.00000000  0.50000000  0.12500000
  0.00000000  0.50000000  0.25000000
  0.00000000  0.50000000  0.37500000
  0.00000000  0.50000000  0.50000000
  0.00000000  0.50000000  0.62500000
  0.00000000  0.50000000  0.75000000
  0.00000000  0.50000000  0.87500000
  0.00000000  0.62500000  0.00000000
  0.00000000  0.62500000  0.12500000
  0.00000000  0.62500000  0.25000000
  0.00000000  0.62500000  0.37500000
  0.00000000  0.62500000  0.50000000
  0.00000000  0.62500000  0.62500000
  0.00000000  0.62500000  0.75000000
  0.00000000  0.62500000  0.87500000
  0.00000000  0.75000000  0.00000000
  0.00000000  0.75000000  0.12500000
  0.00000000  0.75000000  0.25000000
  0.00000000  0.75000000  0.37500000
  0.00000000  0.75000000  0.50000000
  0.00000000  0.75000000  0.62500000
  0.00000000  0.75000000  0.75000000
  0.00000000  0.75000000  0.87500000
  0.00000000  0.87500000  0.00000000
  0.00000000  0.87500000  0.12500000
  0.00000000  0.87500000  0.25000000
  0.00000000  0.87500000  0.37500000
  0.00000000  0.87500000  0.50000000
  0.00000000  0.87500000  0.62500000
  0.00000000  0.87500000  0.75000000
  0.00000000  0.87500000  0.87500000
  0.12500000  0.00000000  0.00000000
  0.12500000  0.00000000  0.12500000
  0.12500000  0.00000000  0.25000000
  0.12500000  0.00000000  0.37500000
  0.12500000  0.00000000  0.50000000
  0.12500000  0.00000000  0.62500000
  0.12500000  0.00000000  0.75000000
  0.12500000  0.00000000  0.87500000
  0.12500000  0.12500000  0.00000000
  0.12500000  0.12500000  0.12500000
  0.12500000  0.12500000  0.25000000
  0.12500000  0.12500000  0.37500000
  0.12500000  0.12500000  0.50000000
  0.12500000  0.12500000  0.62500000
  0.12500000  0.12500000  0.75000000
  0.12500000  0.12500000  0.87500000
  0.12500000  0.25000000  0.00000000
  0.12500000  0.25000000  0.12500000
  0.12500000  0.25000000  0.25000000
  0.12500000  0.25000000  0.37500000
  0.12500000  0.25000000  0.50000000
  0.12500000  0.25000000  0.62500000
  0.12500000  0.25000000  0.75000000
  0.12500000  0.25000000  0.87500000
  0.12500000  0.37500000  0.00000000
  0.12500000  0.37500000  0.12500000
  0.12500000  0.37500000  0.25000000
  0.12500000  0.37500000  0.37500000
  0.12500000  0.37500000  0.50000000
  0.12500000  0.37500000  0.62500000
  0.12500000  0.37500000  0.75000000
  0.12500000  0.37500000  0.87500000
  0.12500000  0.50000000  0.00000000
  0.12500000  0.50000000  0.12500000
  0.12500000  0.50000000  0.25000000
  0.12500000  0.50000000  0.37500000
  0.12500000  0.50000000  0.50000000
  0.12500000  0.50000000  0.62500000
  0.12500000  0.50000000  0.75000000
  0.12500000  0.50000000  0.87500000
  0.12500000  0.62500000  0.00000000
  0.12500000  0.62500000  0.12500000
  0.12500000  0.62500000  0.25000000
  0.12500000  0.62500000  0.37500000
  0.12500000  0.62500000  0.50000000
  0.12500000  0.62500000  0.62500000
  0.12500000  0.62500000  0.75000000
  0.12500000  0.62500000  0.87500000
  0.12500000  0.75000000  0.00000000
  0.12500000  0.75000000  0.12500000
  0.12500000  0.75000000  0.25000000
  0.12500000  0.75000000  0.37500000
  0.12500000  0.75000000  0.50000000
  0.12500000  0.75000000  0.62500000
  0.12500000  0.75000000  0.75000000
  0.12500000  0.75000000  0.87500000
  0.12500000  0.87500000  0.00000000
  0.12500000  0.87500000  0.12500000
  0.12500000  0.87500000  0.25000000
  0.12500000  0.87500000  0.37500000
  0.12500000  0.87500000  0.50000000
  0.12500000  0.87500000  0.62500000
  0.12500000  0.87500000  0.75000000
  0.12500000  0.87500000  0.87500000
  0.25000000  0.00000000  0.00000000
  0.25000000  0.00000000  0.12500000
  0.25000000  0.00000000  0.25000000
  0.25000000  0.00000000  0.37500000
  0.25000000  0.00000000  0.50000000
  0.25000000  0.00000000  0.62500000
  0.25000000  0.00000000  0.75000000
  0.25000000  0.00000000  0.87500000
  0.25000000  0.12500000  0.00000000
  0.25000000  0.12500000  0.12500000
  0.25000000  0.12500000  0.25000000
  0.25000000  0.12500000  0.37500000
  0.25000000  0.12500000  0.50000000
  0.25000000  0.12500000  0.62500000
  0.25000000  0.12500000  0.75000000
  0.25000000  0.12500000  0.87500000
  0.25000000  0.25000000  0.00000000
  0.25000000  0.25000000  0.12500000
  0.25000000  0.25000000  0.25000000
  0.25000000  0.25000000  0.37500000
  0.25000000  0.25000000  0.50000000
  0.25000000  0.25000000  0.62500000
  0.25000000  0.25000000  0.75000000
  0.25000000  0.25000000  0.87500000
  0.25000000  0.37500000  0.00000000
  0.25000000  0.37500000  0.12500000
  0.25000000  0.37500000  0.25000000
  0.25000000  0.37500000  0.37500000
  0.25000000  0.37500000  0.50000000
  0.25000000  0.37500000  0.62500000
  0.25000000  0.37500000  0.75000000
  0.25000000  0.37500000  0.87500000
  0.25000000  0.50000000  0.00000000
  0.25000000  0.50000000  0.12500000
  0.25000000  0.50000000  0.25000000
  0.25000000  0.50000000  0.37500000
  0.25000000  0.50000000  0.50000000
  0.25000000  0.50000000  0.62500000
  0.25000000  0.50000000  0.75000000
  0.25000000  0.50000000  0.87500000
  0.25000000  0.62500000  0.00000000
  0.25000000  0.62500000  0.12500000
  0.25000000  0.62500000  0.25000000
  0.25000000  0.62500000  0.37500000
  0.25000000  0.62500000  0.50000000
  0.25000000  0.62500000  0.62500000
  0.25000000  0.62500000  0.75000000
  0.25000000  0.62500000  0.87500000
  0.25000000  0.75000000  0.00000000
  0.25000000  0.75000000  0.12500000
  0.25000000  0.75000000  0.25000000
  0.25000000  0.75000000  0.37500000
  0.25000000  0.75000000  0.50000000
  0.25000000  0.75000000  0.62500000
  0.25000000  0.75000000  0.75000000
  0.25000000  0.75000000  0.87500000
  0.25000000  0.87500000  0.00000000
  0.25000000  0.87500000  0.12500000
  0.25000000  0.87500000  0.25000000
  0.25000000  0.87500000  0.37500000
  0.25000000  0.87500000  0.50000000
  0.25000000  0.87500000  0.62500000
  0.25000000  0.87500000  0.75000000
  0.25000000  0.87500000  0.87500000
  0.37500000  0.00000000  0.00000000
  0.37500000  0.00000000  0.12500000
  0.37500000  0.00000000  0.25000000
  0.37500000  0.00000000  0.37500000
  0.37500000  0.00000000  0.50000000
  0.37500000  0.00000000  0.62500000
  0.37500000  0.00000000  0.75000000
  0.37500000  0.00000000  0.87500000
  0.37500000  0.12500000  0.00000000
  0.37500000  0.12500000  0.12500000
  0.37500000  0.12500000  0.25000000
  0.37500000  0.12500000  0.37500000
  0.37500000  0.12500000  0.50000000
  0.37500000  0.12500000  0.62500000
  0.37500000  0.12500000  0.75000000
  0.37500000  0.12500000  0.87500000
  0.37500000  0.25000000  0.00000000
  0.37500000  0.25000000  0.12500000
  0.37500000  0.25000000  0.25000000
  0.37500000  0.25000000  0.37500000
  0.37500000  0.25000000  0.50000000
  0.37500000  0.25000000  0.62500000
  0.37500000  0.25000000  0.75000000
  0.37500000  0.25000000  0.87500000
  0.37500000  0.37500000  0.00000000
  0.37500000  0.37500000  0.12500000
  0.37500000  0.37500000  0.25000000
  0.37500000  0.37500000  0.37500000
  0.37500000  0.37500000  0.50000000
  0.37500000  0.37500000  0.62500000
  0.37500000  0.37500000  0.75000000
  0.37500000  0.37500000  0.87500000
  0.37500000  0.50000000  0.00000000
  0.37500000  0.50000000  0.12500000
  0.37500000  0.50000000  0.25000000
  0.37500000  0.50000000  0.37500000
  0.37500000  0.50000000  0.50000000
  0.37500000  0.50000000  0.62500000
  0.37500000  0.50000000  0.75000000
  0.37500000  0.50000000  0.87500000
  0.37500000  0.62500000  0.00000000
  0.37500000  0.62500000  0.12500000
  0.37500000  0.62500000  0.25000000
  0.37500000  0.62500000  0.37500000
  0.37500000  0.62500000  0.50000000
  0.37500000  0.62500000  0.62500000
  0.37500000  0.62500000  0.75000000
  0.37500000  0.62500000  0.87500000
  0.37500000  0.75000000  0.00000000
  0.37500000  0.75000000  0.12500000
  0.37500000  0.75000000  0.25000000
  0.37500000  0.75000000  0.37500000
  0.37500000  0.75000000  0.50000000
  0.37500000  0.75000000  0.62500000
  0.37500000  0.75000000  0.75000000
  0.37500000  0.75000000  0.87500000
  0.37500000  0.87500000  0.00000000
  0.37500000  0.87500000  0.12500000
  0.37500000  0.87500000  0.25000000
  0.37500000  0.87500000  0.37500000
  0.37500000  0.87500000  0.50000000
  0.37500000  0.87500000  0.62500000
  0.37500000  0.87500000  0.75000000
  0.37500000  0.87500000  0.87500000
  0.50000000  0.00000000  0.00000000
  0.50000000  0.00000000  0.12500000
  0.50000000  0.00000000  0.25000000
  0.50000000  0.00000000  0.37500000
  0.50000000  0.00000000  0.50000000
  0.50000000  0.00000000  0.62500000
  0.50000000  0.00000000  0.75000000
  0.50000000  0.00000000  0.87500000
  0.50000000  0.12500000  0.00000000
  0.50000000  0.12500000  0.12500000
  0.50000000  0.12500000  0.25000000
  0.50000000  0.12500000  0.37500000
  0.50000000  0.12500000  0.50000000
  0.50000000  0.12500000  0.62500000
  0.50000000  0.12500000  0.75000000
  0.50000000  0.12500000  0.87500000
  0.50000000  0.25000000  0.00000000
  0.50000000  0.25000000  0.12500000
  0.50000000  0.25000000  0.25000000
  0.50000000  0.25000000  0.37500000
  0.50000000  0.25000000  0.50000000
  0.50000000  0.25000000  0.62500000
  0.50000000  0.25000000  0.75000000
  0.50000000  0.25000000  0.87500000
  0.50000000  0.37500000  0.00000000
  0.50000000  0.37500000  0.12500000
  0.50000000  0.37500000  0.25000000
  0.50000000  0.37500000  0.37500000
  0.50000000  0.37500000  0.50000000
  0.50000000  0.37500000  0.62500000
  0.50000000  0.37500000  0.75000000
  0.50000000  0.37500000  0.87500000
  0.50000000  0.50000000  0.00000000
  0.50000000  0.50000000  0.12500000
  0.50000000  0.50000000  0.25000000
  0.50000000  0.50000000  0.37500000
  0.50000000  0.50000000  0.50000000
  0.50000000  0.50000000  0.62500000
  0.50000000  0.50000000  0.75000000
  0.50000000  0.50000000  0.87500000
  0.50000000  0.62500000  0.00000000
  0.50000000  0.62500000  0.12500000
  0.50000000  0.62500000  0.25000000
  0.50000000  0.62500000  0.37500000
  0.50000000  0.62500000  0.50000000
  0.50000000  0.62500000  0.62500000
  0.50000000  0.62500000  0.75000000
  0.50000000  0.62500000  0.87500000
  0.50000000  0.75000000  0.00000000
  0.50000000  0.75000000  0.12500000
  0.50000000  0.75000000  0.25000000
  0.50000000  0.75000000  0.37500000
  0.50000000  0.75000000  0.50000000
  0.50000000  0.75000000  0.62500000
  0.50000000  0.75000000  0.75000000
  0.50000000  0.75000000  0.87500000
  0.50000000  0.87500000  0.00000000
  0.50000000  0.87500000  0.12500000
  0.50000000  0.87500000  0.25000000
  0.50000000  0.87500000  0.37500000
  0.50000000  0.87500000  0.50000000
  0.50000000  0.87500000  0.62500000
  0.50000000  0.87500000  0.75000000
  0.50000000  0.87500000  0.87500000
  0.62500000  0.00000000  0.00000000
  0.62500000  0.00000000  0.12500000
  0.62500000  0.00000000  0.25000000
  0.62500000  0.00000000  0.37500000
  0.62500000  0.00000000  0.50000000
  0.62500000  0.00000000  0.62500000
  0.62500000  0.00000000  0.75000000
  0.62500000  0.00000000  0.87500000
  0.62500000  0.12500000  0.00000000
  0.62500000  0.12500000  0.12500000
  0.62500000  0.12500000  0.25000000
  0.62500000  0.12500000  0.37500000
  0.62500000  0.12500000  0.50000000
  0.62500000  0.12500000  0.62500000
  0.62500000  0.12500000  0.75000000
  0.62500000  0.12500000  0.87500000
  0.62500000  0.25000000  0.00000000
  0.62500000  0.25000000  0.12500000
  0.62500000  0.25000000  0.25000000
  0.62500000  0.25000000  0.37500000
  0.62500000  0.25000000  0.50000000
  0.62500000  0.25000000  0.62500000
  0.62500000  0.25000000  0.75000000
  0.62500000  0.25000000  0.87500000
  0.62500000  0.37500000  0.00000000
  0.62500000  0.37500000  0.12500000
  0.62500000  0.37500000  0.25000000
  0.62500000  0.37500000  0.37500000
  0.62500000  0.37500000  0.50000000
  0.62500000  0.37500000  0.62500000
  0.62500000  0.37500000  0.75000000
  0.62500000  0.37500000  0.87500000
  0.62500000  0.50000000  0.00000000
  0.62500000  0.50000000  0.12500000
  0.62500000  0.50000000  0.25000000
  0.62500000  0.50000000  0.37500000
  0.62500000  0.50000000  0.50000000
  0.62500000  0.50000000  0.62500000
  0.62500000  0.50000000  0.75000000
  0.62500000  0.50000000  0.87500000
  0.62500000  0.62500000  0.00000000
  0.62500000  0.62500000  0.12500000
  0.62500000  0.62500000  0.25000000
  0.62500000  0.62500000  0.37500000
  0.62500000  0.62500000  0.50000000
  0.62500000  0.62500000  0.62500000
  0.62500000  0.62500000  0.75000000
  0.62500000  0.62500000  0.87500000
  0.62500000  0.75000000  0.00000000
  0.62500000  0.75000000  0.12500000
  0.62500000  0.75000000  0.25000000
  0.62500000  0.75000000  0.37500000
  0.62500000  0.75000000  0.50000000
  0.62500000  0.75000000  0.62500000
  0.62500000  0.75000000  0.75000000
  0.62500000  0.75000000  0.87500000
  0.62500000  0.87500000  0.00000000
  0.62500000  0.87500000  0.12500000
  0.62500000  0.87500000  0.25000000
  0.62500000  0.87500000  0.37500000
  0.62500000  0.87500000  0.50000000
  0.62500000  0.87500000  0.62500000
  0.62500000  0.87500000  0.75000000
  0.62500000  0.87500000  0.87500000
  0.75000000  0.00000000  0.00000000
  0.75000000  0.00000000  0.12500000
  0.75000000  0.00000000  0.25000000
  0.75000000  0.00000000  0.37500000
  0.75000000  0.00000000  0.50000000
  0.75000000  0.00000000  0.62500000
  0.75000000  0.00000000  0.75000000
  0.75000000  0.00000000  0.87500000
  0.75000000  0.12500000  0.00000000
  0.75000000  0.12500000  0.12500000
  0.75000000  0.12500000  0.25000000
  0.75000000  0.12500000  0.37500000
  0.75000000  0.12500000  0.50000000
  0.75000000  0.12500000  0.62500000
  0.75000000  0.12500000  0.75000000
  0.75000000  0.12500000  0.87500000
  0.75000000  0.25000000  0.00000000
  0.75000000  0.25000000  0.12500000
  0.75000000  0.25000000  0.25000000
  0.75000000  0.25000000  0.37500000
  0.75000000  0.25000000  0.50000000
  0.75000000  0.25000000  0.62500000
  0.75000000  0.25000000  0.75000000
  0.75000000  0.25000000  0.87500000
  0.75000000  0.37500000  0.00000000
  0.75000000  0.37500000  0.12500000
  0.75000000  0.37500000  0.25000000
  0.75000000  0.37500000  0.37500000
  0.75000000  0.37500000  0.50000000
  0.75000000  0.37500000  0.62500000
  0.75000000  0.37500000  0.75000000
  0.75000000  0.37500000  0.87500000
  0.75000000  0.50000000  0.00000000
  0.75000000  0.50000000  0.12500000
  0.75000000  0.50000000  0.25000000
  0.75000000  0.50000000  0.37500000
  0.75000000  0.50000000  0.50000000
  0.75000000  0.50000000  0.62500000
  0.75000000  0.50000000  0.75000000
  0.75000000  0.50000000  0.87500000
  0.75000000  0.62500000  0.00000000
  0.75000000  0.62500000  0.12500000
  0.75000000  0.62500000  0.25000000
  0.75000000  0.62500000  0.37500000
  0.75000000  0.62500000  0.50000000
  0.75000000  0.62500000  0.62500000
  0.75000000  0.62500000  0.75000000
  0.75000000  0.62500000  0.87500000
  0.75000000  0.75000000  0.00000000
  0.75000000  0.75000000  0.12500000
  0.75000000  0.75000000  0.25000000
  0.75000000  0.75000000  0.37500000
  0.75000000  0.75000000  0.50000000
  0.75000000  0.75000000  0.62500000
  0.75000000  0.75000000  0.75000000
  0.75000000  0.75000000  0.87500000
  0.75000000  0.87500000  0.00000000
  0.75000000  0.87500000  0.12500000
  0.75000000  0.87500000  0.25000000
  0.75000000  0.87500000  0.37500000
  0.75000000  0.87500000  0.50000000
  0.75000000  0.87500000  0.62500000
  0.75000000  0.87500000  0.75000000
  0.75000000  0.87500000  0.87500000
  0.87500000  0.00000000  0.00000000
  0.87500000  0.00000000  0.12500000
  0.87500000  0.00000000  0.25000000
  0.87500000  0.00000000  0.37500000
  0.87500000  0.00000000  0.50000000
  0.87500000  0.00000000  0.62500000
  0.87500000  0.00000000  0.75000000
  0.87500000  0.00000000  0.87500000
  0.87500000  0.12500000  0.00000000
  0.87500000  0.12500000  0.12500000
  0.87500000  0.12500000  0.25000000
  0.87500000  0.12500000  0.37500000
  0.87500000  0.12500000  0.50000000
  0.87500000  0.12500000  0.62500000
  0.87500000  0.12500000  0.75000000
  0.87500000  0.12500000  0.87500000
  0.87500000  0.25000000  0.00000000
  0.87500000  0.25000000  0.12500000
  0.87500000  0.25000000  0.25000000
  0.87500000  0.25000000  0.37500000
  0.87500000  0.25000000  0.50000000
  0.87500000  0.25000000  0.62500000
  0.87500000  0.25000000  0.75000000
  0.87500000  0.25000000  0.87500000
  0.87500000  0.37500000  0.00000000
  0.87500000  0.37500000  0.12500000
  0.87500000  0.37500000  0.25000000
  0.87500000  0.37500000  0.37500000
  0.87500000  0.37500000  0.50000000
  0.87500000  0.37500000  0.62500000
  0.87500000  0.37500000  0.75000000
  0.87500000  0.37500000  0.87500000
  0.87500000  0.50000000  0.00000000
  0.87500000  0.50000000  0.12500000
  0.87500000  0.50000000  0.25000000
  0.87500000  0.50000000  0.37500000
  0.87500000  0.50000000  0.50000000
  0.87500000  0.50000000  0.62500000
  0.87500000  0.50000000  0.75000000
  0.87500000  0.50000000  0.87500000
  0.87500000  0.62500000  0.00000000
  0.87500000  0.62500000  0.12500000
  0.87500000  0.62500000  0.25000000
  0.87500000  0.62500000  0.37500000
  0.87500000  0.62500000  0.50000000
  0.87500000  0.62500000  0.62500000
  0.87500000  0.62500000  0.75000000
  0.87500000  0.62500000  0.87500000
  0.87500000  0.75000000  0.00000000
  0.87500000  0.75000000  0.12500000
  0.87500000  0.75000000  0.25000000
  0.87500000  0.75000000  0.37500000
  0.87500000  0.75000000  0.50000000
  0.87500000  0.75000000  0.62500000
  0.87500000  0.75000000  0.75000000
  0.87500000  0.75000000  0.87500000
  0.87500000  0.87500000  0.00000000
  0.87500000  0.87500000  0.12500000
  0.87500000  0.87500000  0.25000000
  0.87500000  0.87500000  0.37500000
  0.87500000  0.87500000  0.50000000
  0.87500000  0.87500000  0.62500000
  0.87500000  0.87500000  0.75000000
  0.87500000  0.87500000  0.87500000
end kpoints
