!qe
&control
   prefix = 'Si'
   calculation = 'bands'
   restart_mode = 'from_scratch'
   wf_collect = .true.
   tstress = .true.
   tprnfor = .true.
   outdir = './'
   wfcdir = './'
   pseudo_dir = './'
   verbosity = 'high'
/
&system
   ibrav = 0
   celldm(1) = 10.164541897
   nat = 2
   ntyp = 1
   nbnd = 750
   ecutwfc = 80
/
&electrons
   electron_maxstep = 500
   conv_thr = 1.0d-10
   mixing_mode = 'plain'
   mixing_beta = 0.7
   mixing_ndim = 8
   diagonalization = 'cg'
   diago_david_ndim = 4
   diago_full_acc = .true.
/
&ions
/
&cell
/
ATOMIC_SPECIES
   Si  28.086 si.cpi.UPF

CELL_PARAMETERS (alat)
  -0.500000000  -0.000000000   0.500000000
   0.000000000   0.500000000   0.500000000
  -0.500000000   0.500000000  -0.000000000

ATOMIC_POSITIONS (crystal)
Si      -0.125000000  -0.125000000  -0.125000000
Si       0.125000000   0.125000000   0.125000000

K_POINTS crystal
   60
  0.062500000  0.062500000  0.062500000   2.0
  0.062500000  0.062500000  0.187500000   6.0
  0.062500000  0.062500000  0.312500000   6.0
  0.062500000  0.062500000  0.437500000   6.0
  0.062500000  0.062500000  0.562500000   6.0
  0.062500000  0.062500000  0.687500000   6.0
  0.062500000  0.062500000  0.812500000   6.0
  0.062500000  0.062500000  0.937500000   6.0
  0.062500000  0.187500000  0.187500000   6.0
  0.062500000  0.187500000  0.312500000  12.0
  0.062500000  0.187500000  0.437500000  12.0
  0.062500000  0.187500000  0.562500000  12.0
  0.062500000  0.187500000  0.687500000  12.0
  0.062500000  0.187500000  0.812500000  12.0
  0.062500000  0.187500000  0.937500000  12.0
  0.062500000  0.312500000  0.312500000   6.0
  0.062500000  0.312500000  0.437500000  12.0
  0.062500000  0.312500000  0.562500000  12.0
  0.062500000  0.312500000  0.687500000  12.0
  0.062500000  0.312500000  0.812500000  12.0
  0.062500000  0.312500000  0.937500000  12.0
  0.062500000  0.437500000  0.437500000   6.0
  0.062500000  0.437500000  0.562500000  12.0
  0.062500000  0.437500000  0.687500000  12.0
  0.062500000  0.437500000  0.812500000  12.0
  0.062500000  0.437500000  0.937500000  12.0
  0.062500000  0.562500000  0.562500000   6.0
  0.062500000  0.562500000  0.687500000  12.0
  0.062500000  0.562500000  0.812500000  12.0
  0.062500000  0.687500000  0.687500000   6.0
  0.062500000  0.687500000  0.812500000  12.0
  0.062500000  0.812500000  0.812500000   6.0
  0.187500000  0.187500000  0.187500000   2.0
  0.187500000  0.187500000  0.312500000   6.0
  0.187500000  0.187500000  0.437500000   6.0
  0.187500000  0.187500000  0.562500000   6.0
  0.187500000  0.187500000  0.687500000   6.0
  0.187500000  0.187500000  0.812500000   6.0
  0.187500000  0.312500000  0.312500000   6.0
  0.187500000  0.312500000  0.437500000  12.0
  0.187500000  0.312500000  0.562500000  12.0
  0.187500000  0.312500000  0.687500000  12.0
  0.187500000  0.312500000  0.812500000  12.0
  0.187500000  0.437500000  0.437500000   6.0
  0.187500000  0.437500000  0.562500000  12.0
  0.187500000  0.437500000  0.687500000  12.0
  0.187500000  0.437500000  0.812500000  12.0
  0.187500000  0.562500000  0.562500000   6.0
  0.187500000  0.562500000  0.687500000  12.0
  0.187500000  0.687500000  0.687500000   6.0
  0.312500000  0.312500000  0.312500000   2.0
  0.312500000  0.312500000  0.437500000   6.0
  0.312500000  0.312500000  0.562500000   6.0
  0.312500000  0.312500000  0.687500000   6.0
  0.312500000  0.437500000  0.437500000   6.0
  0.312500000  0.437500000  0.562500000  12.0
  0.312500000  0.437500000  0.687500000  12.0
  0.312500000  0.562500000  0.562500000   6.0
  0.437500000  0.437500000  0.437500000   2.0
  0.437500000  0.437500000  0.562500000   6.0
